letting numberLocations be  44
letting costs be function (
(0,0) --> 0,
(0,1) --> 21,
(0,2) --> 31,
(0,3) --> 67,
(0,4) --> 67,
(0,5) --> 79,
(0,6) --> 30,
(0,7) --> 29,
(0,8) --> 82,
(0,9) --> 19,
(0,10) --> 70,
(0,11) --> 60,
(0,12) --> 50,
(0,13) --> 44,
(0,14) --> 20,
(0,15) --> 36,
(0,16) --> 67,
(0,17) --> 56,
(0,18) --> 50,
(0,19) --> 65,
(0,20) --> 54,
(0,21) --> 88,
(0,22) --> 46,
(0,23) --> 9,
(0,24) --> 42,
(0,25) --> 36,
(0,26) --> 24,
(0,27) --> 43,
(0,28) --> 25,
(0,29) --> 30,
(0,30) --> 70,
(0,31) --> 40,
(0,32) --> 35,
(0,33) --> 93,
(0,34) --> 54,
(0,35) --> 25,
(0,36) --> 67,
(0,37) --> 48,
(0,38) --> 21,
(0,39) --> 67,
(0,40) --> 66,
(0,41) --> 86,
(0,42) --> 59,
(0,43) --> 42,
(0,44) --> 29,
(1,0) --> 21,
(1,1) --> 0,
(1,2) --> 50,
(1,3) --> 80,
(1,4) --> 86,
(1,5) --> 86,
(1,6) --> 12,
(1,7) --> 41,
(1,8) --> 94,
(1,9) --> 38,
(1,10) --> 83,
(1,11) --> 51,
(1,12) --> 70,
(1,13) --> 54,
(1,14) --> 14,
(1,15) --> 57,
(1,16) --> 86,
(1,17) --> 56,
(1,18) --> 49,
(1,19) --> 54,
(1,20) --> 65,
(1,21) --> 98,
(1,22) --> 64,
(1,23) --> 29,
(1,24) --> 25,
(1,25) --> 56,
(1,26) --> 24,
(1,27) --> 34,
(1,28) --> 38,
(1,29) --> 29,
(1,30) --> 59,
(1,31) --> 34,
(1,32) --> 47,
(1,33) --> 105,
(1,34) --> 42,
(1,35) --> 15,
(1,36) --> 88,
(1,37) --> 33,
(1,38) --> 34,
(1,39) --> 88,
(1,40) --> 56,
(1,41) --> 99,
(1,42) --> 79,
(1,43) --> 42,
(1,44) --> 9,
(2,0) --> 31,
(2,1) --> 50,
(2,2) --> 0,
(2,3) --> 73,
(2,4) --> 56,
(2,5) --> 93,
(2,6) --> 61,
(2,7) --> 46,
(2,8) --> 88,
(2,9) --> 28,
(2,10) --> 75,
(2,11) --> 90,
(2,12) --> 22,
(2,13) --> 59,
(2,14) --> 42,
(2,15) --> 21,
(2,16) --> 60,
(2,17) --> 81,
(2,18) --> 76,
(2,19) --> 95,
(2,20) --> 67,
(2,21) --> 97,
(2,22) --> 42,
(2,23) --> 27,
(2,24) --> 73,
(2,25) --> 8,
(2,26) --> 53,
(2,27) --> 73,
(2,28) --> 43,
(2,29) --> 58,
(2,30) --> 100,
(2,31) --> 51,
(2,32) --> 50,
(2,33) --> 99,
(2,34) --> 85,
(2,35) --> 47,
(2,36) --> 45,
(2,37) --> 79,
(2,38) --> 20,
(2,39) --> 43,
(2,40) --> 95,
(2,41) --> 91,
(2,42) --> 47,
(2,43) --> 68,
(2,44) --> 59,
(3,0) --> 67,
(3,1) --> 80,
(3,2) --> 73,
(3,3) --> 0,
(3,4) --> 37,
(3,5) --> 26,
(3,6) --> 80,
(3,7) --> 39,
(3,8) --> 16,
(3,9) --> 50,
(3,10) --> 4,
(3,11) --> 71,
(3,12) --> 69,
(3,13) --> 26,
(3,14) --> 86,
(3,15) --> 53,
(3,16) --> 30,
(3,17) --> 47,
(3,18) --> 49,
(3,19) --> 77,
(3,20) --> 17,
(3,21) --> 25,
(3,22) --> 33,
(3,23) --> 59,
(3,24) --> 81,
(3,25) --> 69,
(3,26) --> 58,
(3,27) --> 66,
(3,28) --> 42,
(3,29) --> 55,
(3,30) --> 81,
(3,31) --> 107,
(3,32) --> 33,
(3,33) --> 27,
(3,34) --> 75,
(3,35) --> 90,
(3,36) --> 61,
(3,37) --> 79,
(3,38) --> 81,
(3,39) --> 66,
(3,40) --> 74,
(3,41) --> 20,
(3,42) --> 40,
(3,43) --> 48,
(3,44) --> 81,
(4,0) --> 67,
(4,1) --> 86,
(4,2) --> 56,
(4,3) --> 37,
(4,4) --> 0,
(4,5) --> 63,
(4,6) --> 91,
(4,7) --> 50,
(4,8) --> 45,
(4,9) --> 48,
(4,10) --> 35,
(4,11) --> 98,
(4,12) --> 43,
(4,13) --> 48,
(4,14) --> 86,
(4,15) --> 36,
(4,16) --> 7,
(4,17) --> 76,
(4,18) --> 76,
(4,19) --> 103,
(4,20) --> 46,
(4,21) --> 58,
(4,22) --> 22,
(4,23) --> 58,
(4,24) --> 98,
(4,25) --> 50,
(4,26) --> 71,
(4,27) --> 87,
(4,28) --> 52,
(4,29) --> 72,
(4,30) --> 108,
(4,31) --> 103,
(4,32) --> 47,
(4,33) --> 54,
(4,34) --> 98,
(4,35) --> 92,
(4,36) --> 26,
(4,37) --> 99,
(4,38) --> 72,
(4,39) --> 32,
(4,40) --> 102,
(4,41) --> 46,
(4,42) --> 9,
(4,43) --> 71,
(4,44) --> 91,
(5,0) --> 79,
(5,1) --> 86,
(5,2) --> 93,
(5,3) --> 26,
(5,4) --> 63,
(5,5) --> 0,
(5,6) --> 83,
(5,7) --> 51,
(5,8) --> 23,
(5,9) --> 67,
(5,10) --> 28,
(5,11) --> 61,
(5,12) --> 93,
(5,13) --> 35,
(5,14) --> 96,
(5,15) --> 75,
(5,16) --> 56,
(5,17) --> 37,
(5,18) --> 43,
(5,19) --> 65,
(5,20) --> 26,
(5,21) --> 16,
(5,22) --> 56,
(5,23) --> 74,
(5,24) --> 80,
(5,25) --> 91,
(5,26) --> 62,
(5,27) --> 63,
(5,28) --> 54,
(5,29) --> 57,
(5,30) --> 68,
(5,31) --> 118,
(5,32) --> 45,
(5,33) --> 27,
(5,34) --> 68,
(5,35) --> 99,
(5,36) --> 87,
(5,37) --> 75,
(5,38) --> 97,
(5,39) --> 92,
(5,40) --> 62,
(5,41) --> 27,
(5,42) --> 66,
(5,43) --> 46,
(5,44) --> 85,
(6,0) --> 30,
(6,1) --> 12,
(6,2) --> 61,
(6,3) --> 80,
(6,4) --> 91,
(6,5) --> 83,
(6,6) --> 0,
(6,7) --> 42,
(6,8) --> 94,
(6,9) --> 45,
(6,10) --> 83,
(6,11) --> 40,
(6,12) --> 80,
(6,13) --> 53,
(6,14) --> 26,
(6,15) --> 65,
(6,16) --> 90,
(6,17) --> 49,
(6,18) --> 42,
(6,19) --> 43,
(6,20) --> 64,
(6,21) --> 96,
(6,22) --> 69,
(6,23) --> 38,
(6,24) --> 13,
(6,25) --> 67,
(6,26) --> 22,
(6,27) --> 25,
(6,28) --> 40,
(6,29) --> 26,
(6,30) --> 47,
(6,31) --> 44,
(6,32) --> 48,
(6,33) --> 104,
(6,34) --> 31,
(6,35) --> 25,
(6,36) --> 96,
(6,37) --> 21,
(6,38) --> 46,
(6,39) --> 97,
(6,40) --> 45,
(6,41) --> 98,
(6,42) --> 85,
(6,43) --> 37,
(6,44) --> 3,
(7,0) --> 29,
(7,1) --> 41,
(7,2) --> 46,
(7,3) --> 39,
(7,4) --> 50,
(7,5) --> 51,
(7,6) --> 42,
(7,7) --> 0,
(7,8) --> 54,
(7,9) --> 18,
(7,10) --> 43,
(7,11) --> 50,
(7,12) --> 55,
(7,13) --> 15,
(7,14) --> 47,
(7,15) --> 35,
(7,16) --> 48,
(7,17) --> 35,
(7,18) --> 31,
(7,19) --> 56,
(7,20) --> 26,
(7,21) --> 60,
(7,22) --> 29,
(7,23) --> 23,
(7,24) --> 47,
(7,25) --> 47,
(7,26) --> 21,
(7,27) --> 37,
(7,28) --> 4,
(7,29) --> 21,
(7,30) --> 61,
(7,31) --> 69,
(7,32) --> 6,
(7,33) --> 65,
(7,34) --> 49,
(7,35) --> 51,
(7,36) --> 61,
(7,37) --> 48,
(7,38) --> 47,
(7,39) --> 64,
(7,40) --> 55,
(7,41) --> 59,
(7,42) --> 46,
(7,43) --> 24,
(7,44) --> 43,
(8,0) --> 82,
(8,1) --> 94,
(8,2) --> 88,
(8,3) --> 16,
(8,4) --> 45,
(8,5) --> 23,
(8,6) --> 94,
(8,7) --> 54,
(8,8) --> 0,
(8,9) --> 66,
(8,10) --> 13,
(8,11) --> 80,
(8,12) --> 83,
(8,13) --> 40,
(8,14) --> 101,
(8,15) --> 68,
(8,16) --> 38,
(8,17) --> 55,
(8,18) --> 59,
(8,19) --> 85,
(8,20) --> 30,
(8,21) --> 13,
(8,22) --> 47,
(8,23) --> 75,
(8,24) --> 94,
(8,25) --> 84,
(8,26) --> 72,
(8,27) --> 78,
(8,28) --> 58,
(8,29) --> 68,
(8,30) --> 88,
(8,31) --> 122,
(8,32) --> 48,
(8,33) --> 11,
(8,34) --> 85,
(8,35) --> 106,
(8,36) --> 71,
(8,37) --> 91,
(8,38) --> 97,
(8,39) --> 77,
(8,40) --> 82,
(8,41) --> 5,
(8,42) --> 51,
(8,43) --> 60,
(8,44) --> 95,
(9,0) --> 19,
(9,1) --> 38,
(9,2) --> 28,
(9,3) --> 50,
(9,4) --> 48,
(9,5) --> 67,
(9,6) --> 45,
(9,7) --> 18,
(9,8) --> 66,
(9,9) --> 0,
(9,10) --> 53,
(9,11) --> 64,
(9,12) --> 39,
(9,13) --> 32,
(9,14) --> 38,
(9,15) --> 21,
(9,16) --> 49,
(9,17) --> 53,
(9,18) --> 48,
(9,19) --> 70,
(9,20) --> 41,
(9,21) --> 74,
(9,22) --> 27,
(9,23) --> 10,
(9,24) --> 54,
(9,25) --> 29,
(9,26) --> 29,
(9,27) --> 49,
(9,28) --> 15,
(9,29) --> 33,
(9,30) --> 75,
(9,31) --> 58,
(9,32) --> 22,
(9,33) --> 77,
(9,34) --> 61,
(9,35) --> 44,
(9,36) --> 51,
(9,37) --> 57,
(9,38) --> 31,
(9,39) --> 53,
(9,40) --> 70,
(9,41) --> 70,
(9,42) --> 41,
(9,43) --> 40,
(9,44) --> 44,
(10,0) --> 70,
(10,1) --> 83,
(10,2) --> 75,
(10,3) --> 4,
(10,4) --> 35,
(10,5) --> 28,
(10,6) --> 83,
(10,7) --> 43,
(10,8) --> 13,
(10,9) --> 53,
(10,10) --> 0,
(10,11) --> 75,
(10,12) --> 70,
(10,13) --> 30,
(10,14) --> 89,
(10,15) --> 54,
(10,16) --> 28,
(10,17) --> 50,
(10,18) --> 53,
(10,19) --> 81,
(10,20) --> 21,
(10,21) --> 24,
(10,22) --> 34,
(10,23) --> 62,
(10,24) --> 85,
(10,25) --> 71,
(10,26) --> 61,
(10,27) --> 70,
(10,28) --> 46,
(10,29) --> 59,
(10,30) --> 84,
(10,31) --> 110,
(10,32) --> 36,
(10,33) --> 25,
(10,34) --> 79,
(10,35) --> 94,
(10,36) --> 60,
(10,37) --> 83,
(10,38) --> 84,
(10,39) --> 66,
(10,40) --> 78,
(10,41) --> 17,
(10,42) --> 39,
(10,43) --> 52,
(10,44) --> 85,
(11,0) --> 60,
(11,1) --> 51,
(11,2) --> 90,
(11,3) --> 71,
(11,4) --> 98,
(11,5) --> 61,
(11,6) --> 40,
(11,7) --> 50,
(11,8) --> 80,
(11,9) --> 64,
(11,10) --> 75,
(11,11) --> 0,
(11,12) --> 103,
(11,13) --> 50,
(11,14) --> 65,
(11,15) --> 84,
(11,16) --> 94,
(11,17) --> 25,
(11,18) --> 22,
(11,19) --> 6,
(11,20) --> 55,
(11,21) --> 77,
(11,22) --> 78,
(11,23) --> 63,
(11,24) --> 30,
(11,25) --> 93,
(11,26) --> 37,
(11,27) --> 17,
(11,28) --> 51,
(11,29) --> 32,
(11,30) --> 11,
(11,31) --> 85,
(11,32) --> 52,
(11,33) --> 87,
(11,34) --> 10,
(11,35) --> 65,
(11,36) --> 111,
(11,37) --> 21,
(11,38) --> 81,
(11,39) --> 115,
(11,40) --> 5,
(11,41) --> 85,
(11,42) --> 95,
(11,43) --> 27,
(11,44) --> 43,
(12,0) --> 50,
(12,1) --> 70,
(12,2) --> 22,
(12,3) --> 69,
(12,4) --> 43,
(12,5) --> 93,
(12,6) --> 80,
(12,7) --> 55,
(12,8) --> 83,
(12,9) --> 39,
(12,10) --> 70,
(12,11) --> 103,
(12,12) --> 0,
(12,13) --> 64,
(12,14) --> 63,
(12,15) --> 20,
(12,16) --> 48,
(12,17) --> 89,
(12,18) --> 86,
(12,19) --> 109,
(12,20) --> 69,
(12,21) --> 94,
(12,22) --> 37,
(12,23) --> 43,
(12,24) --> 91,
(12,25) --> 14,
(12,26) --> 68,
(12,27) --> 88,
(12,28) --> 53,
(12,29) --> 72,
(12,30) --> 114,
(12,31) --> 73,
(12,32) --> 56,
(12,33) --> 93,
(12,34) --> 100,
(12,35) --> 69,
(12,36) --> 24,
(12,37) --> 96,
(12,38) --> 42,
(12,39) --> 21,
(12,40) --> 109,
(12,41) --> 85,
(12,42) --> 34,
(12,43) --> 79,
(12,44) --> 78,
(13,0) --> 44,
(13,1) --> 54,
(13,2) --> 59,
(13,3) --> 26,
(13,4) --> 48,
(13,5) --> 35,
(13,6) --> 53,
(13,7) --> 15,
(13,8) --> 40,
(13,9) --> 32,
(13,10) --> 30,
(13,11) --> 50,
(13,12) --> 64,
(13,13) --> 0,
(13,14) --> 62,
(13,15) --> 44,
(13,16) --> 44,
(13,17) --> 28,
(13,18) --> 28,
(13,19) --> 55,
(13,20) --> 11,
(13,21) --> 45,
(13,22) --> 31,
(13,23) --> 38,
(13,24) --> 55,
(13,25) --> 58,
(13,26) --> 31,
(13,27) --> 41,
(13,28) --> 19,
(13,29) --> 29,
(13,30) --> 60,
(13,31) --> 84,
(13,32) --> 9,
(13,33) --> 51,
(13,34) --> 51,
(13,35) --> 66,
(13,36) --> 65,
(13,37) --> 54,
(13,38) --> 62,
(13,39) --> 69,
(13,40) --> 54,
(13,41) --> 45,
(13,42) --> 46,
(13,43) --> 24,
(13,44) --> 55,
(14,0) --> 20,
(14,1) --> 14,
(14,2) --> 42,
(14,3) --> 86,
(14,4) --> 86,
(14,5) --> 96,
(14,6) --> 26,
(14,7) --> 47,
(14,8) --> 101,
(14,9) --> 38,
(14,10) --> 89,
(14,11) --> 65,
(14,12) --> 63,
(14,13) --> 62,
(14,14) --> 0,
(14,15) --> 53,
(14,16) --> 87,
(14,17) --> 68,
(14,18) --> 61,
(14,19) --> 68,
(14,20) --> 72,
(14,21) --> 106,
(14,22) --> 65,
(14,23) --> 28,
(14,24) --> 39,
(14,25) --> 49,
(14,26) --> 35,
(14,27) --> 48,
(14,28) --> 43,
(14,29) --> 41,
(14,30) --> 73,
(14,31) --> 22,
(14,32) --> 53,
(14,33) --> 112,
(14,34) --> 56,
(14,35) --> 6,
(14,36) --> 83,
(14,37) --> 47,
(14,38) --> 23,
(14,39) --> 83,
(14,40) --> 70,
(14,41) --> 105,
(14,42) --> 78,
(14,43) --> 54,
(14,44) --> 23,
(15,0) --> 36,
(15,1) --> 57,
(15,2) --> 21,
(15,3) --> 53,
(15,4) --> 36,
(15,5) --> 75,
(15,6) --> 65,
(15,7) --> 35,
(15,8) --> 68,
(15,9) --> 21,
(15,10) --> 54,
(15,11) --> 84,
(15,12) --> 20,
(15,13) --> 44,
(15,14) --> 53,
(15,15) --> 0,
(15,16) --> 39,
(15,17) --> 70,
(15,18) --> 66,
(15,19) --> 90,
(15,20) --> 50,
(15,21) --> 78,
(15,22) --> 21,
(15,23) --> 27,
(15,24) --> 74,
(15,25) --> 16,
(15,26) --> 50,
(15,27) --> 69,
(15,28) --> 34,
(15,29) --> 53,
(15,30) --> 95,
(15,31) --> 68,
(15,32) --> 36,
(15,33) --> 79,
(15,34) --> 81,
(15,35) --> 59,
(15,36) --> 31,
(15,37) --> 78,
(15,38) --> 37,
(15,39) --> 32,
(15,40) --> 89,
(15,41) --> 71,
(15,42) --> 27,
(15,43) --> 59,
(15,44) --> 64,
(16,0) --> 67,
(16,1) --> 86,
(16,2) --> 60,
(16,3) --> 30,
(16,4) --> 7,
(16,5) --> 56,
(16,6) --> 90,
(16,7) --> 48,
(16,8) --> 38,
(16,9) --> 49,
(16,10) --> 28,
(16,11) --> 94,
(16,12) --> 48,
(16,13) --> 44,
(16,14) --> 87,
(16,15) --> 39,
(16,16) --> 0,
(16,17) --> 71,
(16,18) --> 72,
(16,19) --> 99,
(16,20) --> 41,
(16,21) --> 51,
(16,22) --> 22,
(16,23) --> 59,
(16,24) --> 96,
(16,25) --> 54,
(16,26) --> 69,
(16,27) --> 84,
(16,28) --> 50,
(16,29) --> 69,
(16,30) --> 104,
(16,31) --> 105,
(16,32) --> 44,
(16,33) --> 47,
(16,34) --> 95,
(16,35) --> 93,
(16,36) --> 33,
(16,37) --> 96,
(16,38) --> 75,
(16,39) --> 39,
(16,40) --> 97,
(16,41) --> 39,
(16,42) --> 14,
(16,43) --> 67,
(16,44) --> 90,
(17,0) --> 56,
(17,1) --> 56,
(17,2) --> 81,
(17,3) --> 47,
(17,4) --> 76,
(17,5) --> 37,
(17,6) --> 49,
(17,7) --> 35,
(17,8) --> 55,
(17,9) --> 53,
(17,10) --> 50,
(17,11) --> 25,
(17,12) --> 89,
(17,13) --> 28,
(17,14) --> 68,
(17,15) --> 70,
(17,16) --> 71,
(17,17) --> 0,
(17,18) --> 7,
(17,19) --> 30,
(17,20) --> 31,
(17,21) --> 52,
(17,22) --> 59,
(17,23) --> 55,
(17,24) --> 44,
(17,25) --> 82,
(17,26) --> 33,
(17,27) --> 26,
(17,28) --> 37,
(17,29) --> 27,
(17,30) --> 34,
(17,31) --> 90,
(17,32) --> 34,
(17,33) --> 63,
(17,34) --> 31,
(17,35) --> 70,
(17,36) --> 93,
(17,37) --> 38,
(17,38) --> 77,
(17,39) --> 97,
(17,40) --> 28,
(17,41) --> 60,
(17,42) --> 74,
(17,43) --> 14,
(17,44) --> 52,
(18,0) --> 50,
(18,1) --> 49,
(18,2) --> 76,
(18,3) --> 49,
(18,4) --> 76,
(18,5) --> 43,
(18,6) --> 42,
(18,7) --> 31,
(18,8) --> 59,
(18,9) --> 48,
(18,10) --> 53,
(18,11) --> 22,
(18,12) --> 86,
(18,13) --> 28,
(18,14) --> 61,
(18,15) --> 66,
(18,16) --> 72,
(18,17) --> 7,
(18,18) --> 0,
(18,19) --> 28,
(18,20) --> 33,
(18,21) --> 58,
(18,22) --> 57,
(18,23) --> 50,
(18,24) --> 37,
(18,25) --> 77,
(18,26) --> 26,
(18,27) --> 20,
(18,28) --> 33,
(18,29) --> 20,
(18,30) --> 32,
(18,31) --> 83,
(18,32) --> 31,
(18,33) --> 68,
(18,34) --> 26,
(18,35) --> 63,
(18,36) --> 91,
(18,37) --> 32,
(18,38) --> 71,
(18,39) --> 95,
(18,40) --> 26,
(18,41) --> 64,
(18,42) --> 73,
(18,43) --> 8,
(18,44) --> 44,
(19,0) --> 65,
(19,1) --> 54,
(19,2) --> 95,
(19,3) --> 77,
(19,4) --> 103,
(19,5) --> 65,
(19,6) --> 43,
(19,7) --> 56,
(19,8) --> 85,
(19,9) --> 70,
(19,10) --> 81,
(19,11) --> 6,
(19,12) --> 109,
(19,13) --> 55,
(19,14) --> 68,
(19,15) --> 90,
(19,16) --> 99,
(19,17) --> 30,
(19,18) --> 28,
(19,19) --> 0,
(19,20) --> 60,
(19,21) --> 81,
(19,22) --> 84,
(19,23) --> 68,
(19,24) --> 31,
(19,25) --> 98,
(19,26) --> 42,
(19,27) --> 22,
(19,28) --> 57,
(19,29) --> 37,
(19,30) --> 5,
(19,31) --> 87,
(19,32) --> 57,
(19,33) --> 92,
(19,34) --> 12,
(19,35) --> 68,
(19,36) --> 117,
(19,37) --> 22,
(19,38) --> 85,
(19,39) --> 120,
(19,40) --> 4,
(19,41) --> 90,
(19,42) --> 100,
(19,43) --> 32,
(19,44) --> 46,
(20,0) --> 54,
(20,1) --> 65,
(20,2) --> 67,
(20,3) --> 17,
(20,4) --> 46,
(20,5) --> 26,
(20,6) --> 64,
(20,7) --> 26,
(20,8) --> 30,
(20,9) --> 41,
(20,10) --> 21,
(20,11) --> 55,
(20,12) --> 69,
(20,13) --> 11,
(20,14) --> 72,
(20,15) --> 50,
(20,16) --> 41,
(20,17) --> 31,
(20,18) --> 33,
(20,19) --> 60,
(20,20) --> 0,
(20,21) --> 34,
(20,22) --> 33,
(20,23) --> 48,
(20,24) --> 65,
(20,25) --> 65,
(20,26) --> 42,
(20,27) --> 49,
(20,28) --> 29,
(20,29) --> 38,
(20,30) --> 65,
(20,31) --> 94,
(20,32) --> 19,
(20,33) --> 40,
(20,34) --> 58,
(20,35) --> 76,
(20,36) --> 66,
(20,37) --> 62,
(20,38) --> 72,
(20,39) --> 71,
(20,40) --> 58,
(20,41) --> 35,
(20,42) --> 46,
(20,43) --> 31,
(20,44) --> 65,
(21,0) --> 88,
(21,1) --> 98,
(21,2) --> 97,
(21,3) --> 25,
(21,4) --> 58,
(21,5) --> 16,
(21,6) --> 96,
(21,7) --> 60,
(21,8) --> 13,
(21,9) --> 74,
(21,10) --> 24,
(21,11) --> 77,
(21,12) --> 94,
(21,13) --> 45,
(21,14) --> 106,
(21,15) --> 78,
(21,16) --> 51,
(21,17) --> 52,
(21,18) --> 58,
(21,19) --> 81,
(21,20) --> 34,
(21,21) --> 0,
(21,22) --> 57,
(21,23) --> 82,
(21,24) --> 94,
(21,25) --> 94,
(21,26) --> 74,
(21,27) --> 77,
(21,28) --> 63,
(21,29) --> 70,
(21,30) --> 84,
(21,31) --> 128,
(21,32) --> 53,
(21,33) --> 11,
(21,34) --> 83,
(21,35) --> 110,
(21,36) --> 83,
(21,37) --> 90,
(21,38) --> 105,
(21,39) --> 89,
(21,40) --> 78,
(21,41) --> 14,
(21,42) --> 63,
(21,43) --> 60,
(21,44) --> 97,
(22,0) --> 46,
(22,1) --> 64,
(22,2) --> 42,
(22,3) --> 33,
(22,4) --> 22,
(22,5) --> 56,
(22,6) --> 69,
(22,7) --> 29,
(22,8) --> 47,
(22,9) --> 27,
(22,10) --> 34,
(22,11) --> 78,
(22,12) --> 37,
(22,13) --> 31,
(22,14) --> 65,
(22,15) --> 21,
(22,16) --> 22,
(22,17) --> 59,
(22,18) --> 57,
(22,19) --> 84,
(22,20) --> 33,
(22,21) --> 57,
(22,22) --> 0,
(22,23) --> 37,
(22,24) --> 76,
(22,25) --> 37,
(22,26) --> 49,
(22,27) --> 66,
(22,28) --> 30,
(22,29) --> 50,
(22,30) --> 89,
(22,31) --> 84,
(22,32) --> 27,
(22,33) --> 58,
(22,34) --> 78,
(22,35) --> 71,
(22,36) --> 34,
(22,37) --> 77,
(22,38) --> 54,
(22,39) --> 39,
(22,40) --> 83,
(22,41) --> 50,
(22,42) --> 17,
(22,43) --> 52,
(22,44) --> 69,
(23,0) --> 9,
(23,1) --> 29,
(23,2) --> 27,
(23,3) --> 59,
(23,4) --> 58,
(23,5) --> 74,
(23,6) --> 38,
(23,7) --> 23,
(23,8) --> 75,
(23,9) --> 10,
(23,10) --> 62,
(23,11) --> 63,
(23,12) --> 43,
(23,13) --> 38,
(23,14) --> 28,
(23,15) --> 27,
(23,16) --> 59,
(23,17) --> 55,
(23,18) --> 50,
(23,19) --> 68,
(23,20) --> 48,
(23,21) --> 82,
(23,22) --> 37,
(23,23) --> 0,
(23,24) --> 48,
(23,25) --> 30,
(23,26) --> 26,
(23,27) --> 46,
(23,28) --> 20,
(23,29) --> 31,
(23,30) --> 73,
(23,31) --> 48,
(23,32) --> 29,
(23,33) --> 86,
(23,34) --> 58,
(23,35) --> 34,
(23,36) --> 58,
(23,37) --> 53,
(23,38) --> 23,
(23,39) --> 59,
(23,40) --> 68,
(23,41) --> 79,
(23,42) --> 50,
(23,43) --> 42,
(23,44) --> 36,
(24,0) --> 42,
(24,1) --> 25,
(24,2) --> 73,
(24,3) --> 81,
(24,4) --> 98,
(24,5) --> 80,
(24,6) --> 13,
(24,7) --> 47,
(24,8) --> 94,
(24,9) --> 54,
(24,10) --> 85,
(24,11) --> 30,
(24,12) --> 91,
(24,13) --> 55,
(24,14) --> 39,
(24,15) --> 74,
(24,16) --> 96,
(24,17) --> 44,
(24,18) --> 37,
(24,19) --> 31,
(24,20) --> 65,
(24,21) --> 94,
(24,22) --> 76,
(24,23) --> 48,
(24,24) --> 0,
(24,25) --> 78,
(24,26) --> 26,
(24,27) --> 18,
(24,28) --> 46,
(24,29) --> 27,
(24,30) --> 35,
(24,31) --> 56,
(24,32) --> 52,
(24,33) --> 103,
(24,34) --> 20,
(24,35) --> 37,
(24,36) --> 105,
(24,37) --> 9,
(24,38) --> 59,
(24,39) --> 106,
(24,40) --> 34,
(24,41) --> 99,
(24,42) --> 92,
(24,43) --> 35,
(24,44) --> 16,
(25,0) --> 36,
(25,1) --> 56,
(25,2) --> 8,
(25,3) --> 69,
(25,4) --> 50,
(25,5) --> 91,
(25,6) --> 67,
(25,7) --> 47,
(25,8) --> 84,
(25,9) --> 29,
(25,10) --> 71,
(25,11) --> 93,
(25,12) --> 14,
(25,13) --> 58,
(25,14) --> 49,
(25,15) --> 16,
(25,16) --> 54,
(25,17) --> 82,
(25,18) --> 77,
(25,19) --> 98,
(25,20) --> 65,
(25,21) --> 94,
(25,22) --> 37,
(25,23) --> 30,
(25,24) --> 78,
(25,25) --> 0,
(25,26) --> 57,
(25,27) --> 77,
(25,28) --> 44,
(25,29) --> 61,
(25,30) --> 103,
(25,31) --> 59,
(25,32) --> 49,
(25,33) --> 95,
(25,34) --> 88,
(25,35) --> 55,
(25,36) --> 37,
(25,37) --> 83,
(25,38) --> 28,
(25,39) --> 35,
(25,40) --> 98,
(25,41) --> 87,
(25,42) --> 40,
(25,43) --> 69,
(25,44) --> 65,
(26,0) --> 24,
(26,1) --> 24,
(26,2) --> 53,
(26,3) --> 58,
(26,4) --> 71,
(26,5) --> 62,
(26,6) --> 22,
(26,7) --> 21,
(26,8) --> 72,
(26,9) --> 29,
(26,10) --> 61,
(26,11) --> 37,
(26,12) --> 68,
(26,13) --> 31,
(26,14) --> 35,
(26,15) --> 50,
(26,16) --> 69,
(26,17) --> 33,
(26,18) --> 26,
(26,19) --> 42,
(26,20) --> 42,
(26,21) --> 74,
(26,22) --> 49,
(26,23) --> 26,
(26,24) --> 26,
(26,25) --> 57,
(26,26) --> 0,
(26,27) --> 20,
(26,28) --> 19,
(26,29) --> 6,
(26,30) --> 47,
(26,31) --> 57,
(26,32) --> 26,
(26,33) --> 82,
(26,34) --> 32,
(26,35) --> 38,
(26,36) --> 79,
(26,37) --> 29,
(26,38) --> 45,
(26,39) --> 82,
(26,40) --> 42,
(26,41) --> 76,
(26,42) --> 66,
(26,43) --> 19,
(26,44) --> 23,
(27,0) --> 43,
(27,1) --> 34,
(27,2) --> 73,
(27,3) --> 66,
(27,4) --> 87,
(27,5) --> 63,
(27,6) --> 25,
(27,7) --> 37,
(27,8) --> 78,
(27,9) --> 49,
(27,10) --> 70,
(27,11) --> 17,
(27,12) --> 88,
(27,13) --> 41,
(27,14) --> 48,
(27,15) --> 69,
(27,16) --> 84,
(27,17) --> 26,
(27,18) --> 20,
(27,19) --> 22,
(27,20) --> 49,
(27,21) --> 77,
(27,22) --> 66,
(27,23) --> 46,
(27,24) --> 18,
(27,25) --> 77,
(27,26) --> 20,
(27,27) --> 0,
(27,28) --> 37,
(27,29) --> 16,
(27,30) --> 27,
(27,31) --> 68,
(27,32) --> 40,
(27,33) --> 87,
(27,34) --> 12,
(27,35) --> 49,
(27,36) --> 98,
(27,37) --> 13,
(27,38) --> 63,
(27,39) --> 101,
(27,40) --> 23,
(27,41) --> 83,
(27,42) --> 83,
(27,43) --> 18,
(27,44) --> 28,
(28,0) --> 25,
(28,1) --> 38,
(28,2) --> 43,
(28,3) --> 42,
(28,4) --> 52,
(28,5) --> 54,
(28,6) --> 40,
(28,7) --> 4,
(28,8) --> 58,
(28,9) --> 15,
(28,10) --> 46,
(28,11) --> 51,
(28,12) --> 53,
(28,13) --> 19,
(28,14) --> 43,
(28,15) --> 34,
(28,16) --> 50,
(28,17) --> 37,
(28,18) --> 33,
(28,19) --> 57,
(28,20) --> 29,
(28,21) --> 63,
(28,22) --> 30,
(28,23) --> 20,
(28,24) --> 46,
(28,25) --> 44,
(28,26) --> 19,
(28,27) --> 37,
(28,28) --> 0,
(28,29) --> 21,
(28,30) --> 62,
(28,31) --> 65,
(28,32) --> 10,
(28,33) --> 69,
(28,34) --> 49,
(28,35) --> 48,
(28,36) --> 61,
(28,37) --> 48,
(28,38) --> 43,
(28,39) --> 64,
(28,40) --> 56,
(28,41) --> 62,
(28,42) --> 46,
(28,43) --> 26,
(28,44) --> 40,
(29,0) --> 30,
(29,1) --> 29,
(29,2) --> 58,
(29,3) --> 55,
(29,4) --> 72,
(29,5) --> 57,
(29,6) --> 26,
(29,7) --> 21,
(29,8) --> 68,
(29,9) --> 33,
(29,10) --> 59,
(29,11) --> 32,
(29,12) --> 72,
(29,13) --> 29,
(29,14) --> 41,
(29,15) --> 53,
(29,16) --> 69,
(29,17) --> 27,
(29,18) --> 20,
(29,19) --> 37,
(29,20) --> 38,
(29,21) --> 70,
(29,22) --> 50,
(29,23) --> 31,
(29,24) --> 27,
(29,25) --> 61,
(29,26) --> 6,
(29,27) --> 16,
(29,28) --> 21,
(29,29) --> 0,
(29,30) --> 42,
(29,31) --> 63,
(29,32) --> 25,
(29,33) --> 78,
(29,34) --> 28,
(29,35) --> 43,
(29,36) --> 82,
(29,37) --> 27,
(29,38) --> 51,
(29,39) --> 84,
(29,40) --> 37,
(29,41) --> 73,
(29,42) --> 67,
(29,43) --> 13,
(29,44) --> 27,
(30,0) --> 70,
(30,1) --> 59,
(30,2) --> 100,
(30,3) --> 81,
(30,4) --> 108,
(30,5) --> 68,
(30,6) --> 47,
(30,7) --> 61,
(30,8) --> 88,
(30,9) --> 75,
(30,10) --> 84,
(30,11) --> 11,
(30,12) --> 114,
(30,13) --> 60,
(30,14) --> 73,
(30,15) --> 95,
(30,16) --> 104,
(30,17) --> 34,
(30,18) --> 32,
(30,19) --> 5,
(30,20) --> 65,
(30,21) --> 84,
(30,22) --> 89,
(30,23) --> 73,
(30,24) --> 35,
(30,25) --> 103,
(30,26) --> 47,
(30,27) --> 27,
(30,28) --> 62,
(30,29) --> 42,
(30,30) --> 0,
(30,31) --> 91,
(30,32) --> 62,
(30,33) --> 95,
(30,34) --> 16,
(30,35) --> 72,
(30,36) --> 122,
(30,37) --> 26,
(30,38) --> 90,
(30,39) --> 125,
(30,40) --> 6,
(30,41) --> 93,
(30,42) --> 105,
(30,43) --> 37,
(30,44) --> 50,
(31,0) --> 40,
(31,1) --> 34,
(31,2) --> 51,
(31,3) --> 107,
(31,4) --> 103,
(31,5) --> 118,
(31,6) --> 44,
(31,7) --> 69,
(31,8) --> 122,
(31,9) --> 58,
(31,10) --> 110,
(31,11) --> 85,
(31,12) --> 73,
(31,13) --> 84,
(31,14) --> 22,
(31,15) --> 68,
(31,16) --> 105,
(31,17) --> 90,
(31,18) --> 83,
(31,19) --> 87,
(31,20) --> 94,
(31,21) --> 128,
(31,22) --> 84,
(31,23) --> 48,
(31,24) --> 56,
(31,25) --> 59,
(31,26) --> 57,
(31,27) --> 68,
(31,28) --> 65,
(31,29) --> 63,
(31,30) --> 91,
(31,31) --> 0,
(31,32) --> 75,
(31,33) --> 134,
(31,34) --> 75,
(31,35) --> 20,
(31,36) --> 96,
(31,37) --> 65,
(31,38) --> 32,
(31,39) --> 94,
(31,40) --> 89,
(31,41) --> 127,
(31,42) --> 95,
(31,43) --> 76,
(31,44) --> 41,
(32,0) --> 35,
(32,1) --> 47,
(32,2) --> 50,
(32,3) --> 33,
(32,4) --> 47,
(32,5) --> 45,
(32,6) --> 48,
(32,7) --> 6,
(32,8) --> 48,
(32,9) --> 22,
(32,10) --> 36,
(32,11) --> 52,
(32,12) --> 56,
(32,13) --> 9,
(32,14) --> 53,
(32,15) --> 36,
(32,16) --> 44,
(32,17) --> 34,
(32,18) --> 31,
(32,19) --> 57,
(32,20) --> 19,
(32,21) --> 53,
(32,22) --> 27,
(32,23) --> 29,
(32,24) --> 52,
(32,25) --> 49,
(32,26) --> 26,
(32,27) --> 40,
(32,28) --> 10,
(32,29) --> 25,
(32,30) --> 62,
(32,31) --> 75,
(32,32) --> 0,
(32,33) --> 59,
(32,34) --> 51,
(32,35) --> 58,
(32,36) --> 60,
(32,37) --> 52,
(32,38) --> 52,
(32,39) --> 64,
(32,40) --> 56,
(32,41) --> 52,
(32,42) --> 43,
(32,43) --> 25,
(32,44) --> 49,
(33,0) --> 93,
(33,1) --> 105,
(33,2) --> 99,
(33,3) --> 27,
(33,4) --> 54,
(33,5) --> 27,
(33,6) --> 104,
(33,7) --> 65,
(33,8) --> 11,
(33,9) --> 77,
(33,10) --> 25,
(33,11) --> 87,
(33,12) --> 93,
(33,13) --> 51,
(33,14) --> 112,
(33,15) --> 79,
(33,16) --> 47,
(33,17) --> 63,
(33,18) --> 68,
(33,19) --> 92,
(33,20) --> 40,
(33,21) --> 11,
(33,22) --> 58,
(33,23) --> 86,
(33,24) --> 103,
(33,25) --> 95,
(33,26) --> 82,
(33,27) --> 87,
(33,28) --> 69,
(33,29) --> 78,
(33,30) --> 95,
(33,31) --> 134,
(33,32) --> 59,
(33,33) --> 0,
(33,34) --> 94,
(33,35) --> 117,
(33,36) --> 80,
(33,37) --> 100,
(33,38) --> 108,
(33,39) --> 86,
(33,40) --> 89,
(33,41) --> 8,
(33,42) --> 61,
(33,43) --> 69,
(33,44) --> 105,
(34,0) --> 54,
(34,1) --> 42,
(34,2) --> 85,
(34,3) --> 75,
(34,4) --> 98,
(34,5) --> 68,
(34,6) --> 31,
(34,7) --> 49,
(34,8) --> 85,
(34,9) --> 61,
(34,10) --> 79,
(34,11) --> 10,
(34,12) --> 100,
(34,13) --> 51,
(34,14) --> 56,
(34,15) --> 81,
(34,16) --> 95,
(34,17) --> 31,
(34,18) --> 26,
(34,19) --> 12,
(34,20) --> 58,
(34,21) --> 83,
(34,22) --> 78,
(34,23) --> 58,
(34,24) --> 20,
(34,25) --> 88,
(34,26) --> 32,
(34,27) --> 12,
(34,28) --> 49,
(34,29) --> 28,
(34,30) --> 16,
(34,31) --> 75,
(34,32) --> 51,
(34,33) --> 94,
(34,34) --> 0,
(34,35) --> 56,
(34,36) --> 110,
(34,37) --> 11,
(34,38) --> 74,
(34,39) --> 113,
(34,40) --> 14,
(34,41) --> 90,
(34,42) --> 94,
(34,43) --> 28,
(34,44) --> 34,
(35,0) --> 25,
(35,1) --> 15,
(35,2) --> 47,
(35,3) --> 90,
(35,4) --> 92,
(35,5) --> 99,
(35,6) --> 25,
(35,7) --> 51,
(35,8) --> 106,
(35,9) --> 44,
(35,10) --> 94,
(35,11) --> 65,
(35,12) --> 69,
(35,13) --> 66,
(35,14) --> 6,
(35,15) --> 59,
(35,16) --> 93,
(35,17) --> 70,
(35,18) --> 63,
(35,19) --> 68,
(35,20) --> 76,
(35,21) --> 110,
(35,22) --> 71,
(35,23) --> 34,
(35,24) --> 37,
(35,25) --> 55,
(35,26) --> 38,
(35,27) --> 49,
(35,28) --> 48,
(35,29) --> 43,
(35,30) --> 72,
(35,31) --> 20,
(35,32) --> 58,
(35,33) --> 117,
(35,34) --> 56,
(35,35) --> 0,
(35,36) --> 89,
(35,37) --> 46,
(35,38) --> 28,
(35,39) --> 89,
(35,40) --> 70,
(35,41) --> 110,
(35,42) --> 84,
(35,43) --> 56,
(35,44) --> 22,
(36,0) --> 67,
(36,1) --> 88,
(36,2) --> 45,
(36,3) --> 61,
(36,4) --> 26,
(36,5) --> 87,
(36,6) --> 96,
(36,7) --> 61,
(36,8) --> 71,
(36,9) --> 51,
(36,10) --> 60,
(36,11) --> 111,
(36,12) --> 24,
(36,13) --> 65,
(36,14) --> 83,
(36,15) --> 31,
(36,16) --> 33,
(36,17) --> 93,
(36,18) --> 91,
(36,19) --> 117,
(36,20) --> 66,
(36,21) --> 83,
(36,22) --> 34,
(36,23) --> 58,
(36,24) --> 105,
(36,25) --> 37,
(36,26) --> 79,
(36,27) --> 98,
(36,28) --> 61,
(36,29) --> 82,
(36,30) --> 122,
(36,31) --> 96,
(36,32) --> 60,
(36,33) --> 80,
(36,34) --> 110,
(36,35) --> 89,
(36,36) --> 0,
(36,37) --> 108,
(36,38) --> 64,
(36,39) --> 6,
(36,40) --> 116,
(36,41) --> 72,
(36,42) --> 21,
(36,43) --> 85,
(36,44) --> 95,
(37,0) --> 48,
(37,1) --> 33,
(37,2) --> 79,
(37,3) --> 79,
(37,4) --> 99,
(37,5) --> 75,
(37,6) --> 21,
(37,7) --> 48,
(37,8) --> 91,
(37,9) --> 57,
(37,10) --> 83,
(37,11) --> 21,
(37,12) --> 96,
(37,13) --> 54,
(37,14) --> 47,
(37,15) --> 78,
(37,16) --> 96,
(37,17) --> 38,
(37,18) --> 32,
(37,19) --> 22,
(37,20) --> 62,
(37,21) --> 90,
(37,22) --> 77,
(37,23) --> 53,
(37,24) --> 9,
(37,25) --> 83,
(37,26) --> 29,
(37,27) --> 13,
(37,28) --> 48,
(37,29) --> 27,
(37,30) --> 26,
(37,31) --> 65,
(37,32) --> 52,
(37,33) --> 100,
(37,34) --> 11,
(37,35) --> 46,
(37,36) --> 108,
(37,37) --> 0,
(37,38) --> 66,
(37,39) --> 110,
(37,40) --> 25,
(37,41) --> 96,
(37,42) --> 94,
(37,43) --> 31,
(37,44) --> 24,
(38,0) --> 21,
(38,1) --> 34,
(38,2) --> 20,
(38,3) --> 81,
(38,4) --> 72,
(38,5) --> 97,
(38,6) --> 46,
(38,7) --> 47,
(38,8) --> 97,
(38,9) --> 31,
(38,10) --> 84,
(38,11) --> 81,
(38,12) --> 42,
(38,13) --> 62,
(38,14) --> 23,
(38,15) --> 37,
(38,16) --> 75,
(38,17) --> 77,
(38,18) --> 71,
(38,19) --> 85,
(38,20) --> 72,
(38,21) --> 105,
(38,22) --> 54,
(38,23) --> 23,
(38,24) --> 59,
(38,25) --> 28,
(38,26) --> 45,
(38,27) --> 63,
(38,28) --> 43,
(38,29) --> 51,
(38,30) --> 90,
(38,31) --> 32,
(38,32) --> 52,
(38,33) --> 108,
(38,34) --> 74,
(38,35) --> 28,
(38,36) --> 64,
(38,37) --> 66,
(38,38) --> 0,
(38,39) --> 63,
(38,40) --> 86,
(38,41) --> 101,
(38,42) --> 64,
(38,43) --> 63,
(38,44) --> 44,
(39,0) --> 67,
(39,1) --> 88,
(39,2) --> 43,
(39,3) --> 66,
(39,4) --> 32,
(39,5) --> 92,
(39,6) --> 97,
(39,7) --> 64,
(39,8) --> 77,
(39,9) --> 53,
(39,10) --> 66,
(39,11) --> 115,
(39,12) --> 21,
(39,13) --> 69,
(39,14) --> 83,
(39,15) --> 32,
(39,16) --> 39,
(39,17) --> 97,
(39,18) --> 95,
(39,19) --> 120,
(39,20) --> 71,
(39,21) --> 89,
(39,22) --> 39,
(39,23) --> 59,
(39,24) --> 106,
(39,25) --> 35,
(39,26) --> 82,
(39,27) --> 101,
(39,28) --> 64,
(39,29) --> 84,
(39,30) --> 125,
(39,31) --> 94,
(39,32) --> 64,
(39,33) --> 86,
(39,34) --> 113,
(39,35) --> 89,
(39,36) --> 6,
(39,37) --> 110,
(39,38) --> 63,
(39,39) --> 0,
(39,40) --> 120,
(39,41) --> 78,
(39,42) --> 26,
(39,43) --> 88,
(39,44) --> 96,
(40,0) --> 66,
(40,1) --> 56,
(40,2) --> 95,
(40,3) --> 74,
(40,4) --> 102,
(40,5) --> 62,
(40,6) --> 45,
(40,7) --> 55,
(40,8) --> 82,
(40,9) --> 70,
(40,10) --> 78,
(40,11) --> 5,
(40,12) --> 109,
(40,13) --> 54,
(40,14) --> 70,
(40,15) --> 89,
(40,16) --> 97,
(40,17) --> 28,
(40,18) --> 26,
(40,19) --> 4,
(40,20) --> 58,
(40,21) --> 78,
(40,22) --> 83,
(40,23) --> 68,
(40,24) --> 34,
(40,25) --> 98,
(40,26) --> 42,
(40,27) --> 23,
(40,28) --> 56,
(40,29) --> 37,
(40,30) --> 6,
(40,31) --> 89,
(40,32) --> 56,
(40,33) --> 89,
(40,34) --> 14,
(40,35) --> 70,
(40,36) --> 116,
(40,37) --> 25,
(40,38) --> 86,
(40,39) --> 120,
(40,40) --> 0,
(40,41) --> 87,
(40,42) --> 99,
(40,43) --> 31,
(40,44) --> 48,
(41,0) --> 86,
(41,1) --> 99,
(41,2) --> 91,
(41,3) --> 20,
(41,4) --> 46,
(41,5) --> 27,
(41,6) --> 98,
(41,7) --> 59,
(41,8) --> 5,
(41,9) --> 70,
(41,10) --> 17,
(41,11) --> 85,
(41,12) --> 85,
(41,13) --> 45,
(41,14) --> 105,
(41,15) --> 71,
(41,16) --> 39,
(41,17) --> 60,
(41,18) --> 64,
(41,19) --> 90,
(41,20) --> 35,
(41,21) --> 14,
(41,22) --> 50,
(41,23) --> 79,
(41,24) --> 99,
(41,25) --> 87,
(41,26) --> 76,
(41,27) --> 83,
(41,28) --> 62,
(41,29) --> 73,
(41,30) --> 93,
(41,31) --> 127,
(41,32) --> 52,
(41,33) --> 8,
(41,34) --> 90,
(41,35) --> 110,
(41,36) --> 72,
(41,37) --> 96,
(41,38) --> 101,
(41,39) --> 78,
(41,40) --> 87,
(41,41) --> 0,
(41,42) --> 52,
(41,43) --> 65,
(41,44) --> 100,
(42,0) --> 59,
(42,1) --> 79,
(42,2) --> 47,
(42,3) --> 40,
(42,4) --> 9,
(42,5) --> 66,
(42,6) --> 85,
(42,7) --> 46,
(42,8) --> 51,
(42,9) --> 41,
(42,10) --> 39,
(42,11) --> 95,
(42,12) --> 34,
(42,13) --> 46,
(42,14) --> 78,
(42,15) --> 27,
(42,16) --> 14,
(42,17) --> 74,
(42,18) --> 73,
(42,19) --> 100,
(42,20) --> 46,
(42,21) --> 63,
(42,22) --> 17,
(42,23) --> 50,
(42,24) --> 92,
(42,25) --> 40,
(42,26) --> 66,
(42,27) --> 83,
(42,28) --> 46,
(42,29) --> 67,
(42,30) --> 105,
(42,31) --> 95,
(42,32) --> 43,
(42,33) --> 61,
(42,34) --> 94,
(42,35) --> 84,
(42,36) --> 21,
(42,37) --> 94,
(42,38) --> 64,
(42,39) --> 26,
(42,40) --> 99,
(42,41) --> 52,
(42,42) --> 0,
(42,43) --> 68,
(42,44) --> 84,
(43,0) --> 42,
(43,1) --> 42,
(43,2) --> 68,
(43,3) --> 48,
(43,4) --> 71,
(43,5) --> 46,
(43,6) --> 37,
(43,7) --> 24,
(43,8) --> 60,
(43,9) --> 40,
(43,10) --> 52,
(43,11) --> 27,
(43,12) --> 79,
(43,13) --> 24,
(43,14) --> 54,
(43,15) --> 59,
(43,16) --> 67,
(43,17) --> 14,
(43,18) --> 8,
(43,19) --> 32,
(43,20) --> 31,
(43,21) --> 60,
(43,22) --> 52,
(43,23) --> 42,
(43,24) --> 35,
(43,25) --> 69,
(43,26) --> 19,
(43,27) --> 18,
(43,28) --> 26,
(43,29) --> 13,
(43,30) --> 37,
(43,31) --> 76,
(43,32) --> 25,
(43,33) --> 69,
(43,34) --> 28,
(43,35) --> 56,
(43,36) --> 85,
(43,37) --> 31,
(43,38) --> 63,
(43,39) --> 88,
(43,40) --> 31,
(43,41) --> 65,
(43,42) --> 68,
(43,43) --> 0,
(43,44) --> 39,
(44,0) --> 29,
(44,1) --> 9,
(44,2) --> 59,
(44,3) --> 81,
(44,4) --> 91,
(44,5) --> 85,
(44,6) --> 3,
(44,7) --> 43,
(44,8) --> 95,
(44,9) --> 44,
(44,10) --> 85,
(44,11) --> 43,
(44,12) --> 78,
(44,13) --> 55,
(44,14) --> 23,
(44,15) --> 64,
(44,16) --> 90,
(44,17) --> 52,
(44,18) --> 44,
(44,19) --> 46,
(44,20) --> 65,
(44,21) --> 97,
(44,22) --> 69,
(44,23) --> 36,
(44,24) --> 16,
(44,25) --> 65,
(44,26) --> 23,
(44,27) --> 28,
(44,28) --> 40,
(44,29) --> 27,
(44,30) --> 50,
(44,31) --> 41,
(44,32) --> 49,
(44,33) --> 105,
(44,34) --> 34,
(44,35) --> 22,
(44,36) --> 95,
(44,37) --> 24,
(44,38) --> 44,
(44,39) --> 96,
(44,40) --> 48,
(44,41) --> 100,
(44,42) --> 84,
(44,43) --> 39,
(44,44) --> 0)
letting orderWeights be function (
1 --> 19
,
2 --> 2
,
3 --> 12
,
4 --> 20
,
5 --> 6
,
6 --> 17
,
7 --> 8
,
8 --> 14
,
9 --> 2
,
10 --> 8
,
11 --> 5
,
12 --> 7
,
13 --> 22
,
14 --> 14
,
15 --> 17
,
16 --> 23
,
17 --> 15
,
18 --> 21
,
19 --> 2
,
20 --> 24
,
21 --> 10
,
22 --> 20
,
23 --> 6
,
24 --> 21
,
25 --> 10
,
26 --> 6
,
27 --> 13
,
28 --> 21
,
29 --> 24
,
30 --> 11
,
31 --> 16
,
32 --> 8
,
33 --> 11
,
34 --> 11
,
35 --> 22
,
36 --> 17
,
37 --> 22
,
38 --> 17
,
39 --> 8
,
40 --> 23
,
41 --> 5
,
42 --> 3
,
43 --> 18
,
44 --> 12
)
letting vehicleCapacity be 100
